proyfinal/src/viki/013/andrea/andrea-localstore/experimentInOfficeAgust.take6/worker_10/fbff5e2d-2962-473a-b073-a231de1b2eff.als.cnf.out
Reading from standard input... Use '--help' for help.
============================[ Problem Statistics ]=============================
|                                                                             |
|  Number of variables:         87638                                         |
|  Number of clauses:          161767                                         |
|  Parse time:                   0.04 s                                       |
|                                                                             |
============================[ Search Statistics ]==============================
| Conflicts |          ORIGINAL         |          LEARNT          | Progress |
|           |    Vars  Clauses Literals |    Limit  Clauses Lit/Cl |          |
===============================================================================
|       100 |   63287   108385   270984 |    39741      100     11 | 27.786 % |
|       250 |   63287   108385   270984 |    43715      250     41 | 27.786 % |
|       475 |   63287   108385   270984 |    48086      475     64 | 27.786 % |
|       812 |   63287   108385   270984 |    52895      812     80 | 27.786 % |
|      1318 |   63287   108385   270984 |    58185     1318     94 | 27.786 % |
|      2077 |   63287   108385   270984 |    64003     2077     91 | 27.786 % |
|      3216 |   63266   108257   270701 |    70403     3213     96 | 27.810 % |
|      4924 |   63266   108257   270701 |    77444     4921     89 | 27.810 % |
|      7486 |   63222   108183   270530 |    85188     7480     94 | 27.860 % |
|     11330 |   63222   108075   270283 |    93707    11323     97 | 27.860 % |
===============================================================================
restarts              : 63
conflicts             : 16822          (5541 /sec)
decisions             : 52939          (0.00 % random) (17437 /sec)
propagations          : 27819365       (9163016 /sec)
conflict literals     : 1552089        (57.31 % deleted)
Memory used           : 39.21 MB
CPU time              : 3.03605 s

INDETERMINATE
